results/res_prop_muc/res_Cimatti_mathsat_cores/QF_IDL/FastMax_live_blmc000.smt.smt2.res
unsat
( c1
  c278
  c84 )
